# Solution for model CRVRP
# Objective value = 7.7611555177483410e+02
x[0,0] 0
x[0,1] 0
x[0,2] 1
x[0,3] 0
x[0,4] 0
x[0,5] 0
x[0,6] 0
x[0,7] 0
x[0,8] 0
x[0,9] 1
x[0,10] 0
x[0,11] 1
x[0,12] 0
x[0,13] 0
x[0,14] 0
x[0,15] 0
x[0,16] 0
x[0,17] 0
x[0,18] 0
x[0,19] 0
x[0,20] 0
x[0,21] 0
x[0,22] 0
x[0,23] 0
x[1,0] 0
x[1,1] 0
x[1,2] 0
x[1,3] 0
x[1,4] 0
x[1,5] 1
x[1,6] 0
x[1,7] 0
x[1,8] 0
x[1,9] 0
x[1,10] 0
x[1,11] 0
x[1,12] 0
x[1,13] 0
x[1,14] 0
x[1,15] 0
x[1,16] 0
x[1,17] 0
x[1,18] 0
x[1,19] 0
x[1,20] 0
x[1,21] 0
x[1,22] 0
x[1,23] 0
x[2,0] 0
x[2,1] 0
x[2,2] 0
x[2,3] 0
x[2,4] 0
x[2,5] 0
x[2,6] 0
x[2,7] 0
x[2,8] 0
x[2,9] 0
x[2,10] 1
x[2,11] 0
x[2,12] 0
x[2,13] 0
x[2,14] 0
x[2,15] 0
x[2,16] 0
x[2,17] 0
x[2,18] 0
x[2,19] 0
x[2,20] 0
x[2,21] 0
x[2,22] 0
x[2,23] 0
x[3,0] 0
x[3,1] 0
x[3,2] 0
x[3,3] 0
x[3,4] 0
x[3,5] 0
x[3,6] 0
x[3,7] 0
x[3,8] 0
x[3,9] 0
x[3,10] 0
x[3,11] 0
x[3,12] 0
x[3,13] 0
x[3,14] 0
x[3,15] 0
x[3,16] 0
x[3,17] 1
x[3,18] 0
x[3,19] 0
x[3,20] 0
x[3,21] 0
x[3,22] 0
x[3,23] 0
x[4,0] 0
x[4,1] 0
x[4,2] 0
x[4,3] 0
x[4,4] 0
x[4,5] 0
x[4,6] 0
x[4,7] 0
x[4,8] 0
x[4,9] 0
x[4,10] 0
x[4,11] 0
x[4,12] 0
x[4,13] 0
x[4,14] 1
x[4,15] 0
x[4,16] 0
x[4,17] 0
x[4,18] 0
x[4,19] 0
x[4,20] 0
x[4,21] 0
x[4,22] 0
x[4,23] 0
x[5,0] 0
x[5,1] 0
x[5,2] 0
x[5,3] 0
x[5,4] 0
x[5,5] 0
x[5,6] 0
x[5,7] 0
x[5,8] 0
x[5,9] 0
x[5,10] 0
x[5,11] 0
x[5,12] 0
x[5,13] 0
x[5,14] 0
x[5,15] 0
x[5,16] 0
x[5,17] 0
x[5,18] 0
x[5,19] 0
x[5,20] 0
x[5,21] 1
x[5,22] 0
x[5,23] 0
x[6,0] 0
x[6,1] 0
x[6,2] 0
x[6,3] 0
x[6,4] 0
x[6,5] 0
x[6,6] 0
x[6,7] 0
x[6,8] 0
x[6,9] 0
x[6,10] 0
x[6,11] 0
x[6,12] 0
x[6,13] 0
x[6,14] 0
x[6,15] 0
x[6,16] 0
x[6,17] 0
x[6,18] 0
x[6,19] 0
x[6,20] 1
x[6,21] 0
x[6,22] 0
x[6,23] 0
x[7,0] 0
x[7,1] 0
x[7,2] 0
x[7,3] 0
x[7,4] 0
x[7,5] 0
x[7,6] 0
x[7,7] 0
x[7,8] 0
x[7,9] 0
x[7,10] 0
x[7,11] 0
x[7,12] 0
x[7,13] 0
x[7,14] 0
x[7,15] 0
x[7,16] 0
x[7,17] 0
x[7,18] 0
x[7,19] 1
x[7,20] 0
x[7,21] 0
x[7,22] 0
x[7,23] 0
x[8,0] 0
x[8,1] 0
x[8,2] 0
x[8,3] 0
x[8,4] 0
x[8,5] 0
x[8,6] 0
x[8,7] 0
x[8,8] 0
x[8,9] 0
x[8,10] 0
x[8,11] 0
x[8,12] 0
x[8,13] 0
x[8,14] 0
x[8,15] 0
x[8,16] 1
x[8,17] 0
x[8,18] 0
x[8,19] 0
x[8,20] 0
x[8,21] 0
x[8,22] 0
x[8,23] 0
x[9,0] 0
x[9,1] 0
x[9,2] 0
x[9,3] 0
x[9,4] 0
x[9,5] 0
x[9,6] 1
x[9,7] 0
x[9,8] 0
x[9,9] 0
x[9,10] 0
x[9,11] 0
x[9,12] 0
x[9,13] 0
x[9,14] 0
x[9,15] 0
x[9,16] 0
x[9,17] 0
x[9,18] 0
x[9,19] 0
x[9,20] 0
x[9,21] 0
x[9,22] 0
x[9,23] 0
x[10,0] 0
x[10,1] 0
x[10,2] 0
x[10,3] 0
x[10,4] 0
x[10,5] 0
x[10,6] 0
x[10,7] 0
x[10,8] 0
x[10,9] 0
x[10,10] 0
x[10,11] 0
x[10,12] 1
x[10,13] 0
x[10,14] 0
x[10,15] 0
x[10,16] 0
x[10,17] 0
x[10,18] 0
x[10,19] 0
x[10,20] 0
x[10,21] 0
x[10,22] 0
x[10,23] 0
x[11,0] 0
x[11,1] 1
x[11,2] 0
x[11,3] 0
x[11,4] 0
x[11,5] 0
x[11,6] 0
x[11,7] 0
x[11,8] 0
x[11,9] 0
x[11,10] 0
x[11,11] 0
x[11,12] 0
x[11,13] 0
x[11,14] 0
x[11,15] 0
x[11,16] 0
x[11,17] 0
x[11,18] 0
x[11,19] 0
x[11,20] 0
x[11,21] 0
x[11,22] 0
x[11,23] 0
x[12,0] 0
x[12,1] 0
x[12,2] 0
x[12,3] 0
x[12,4] 0
x[12,5] 0
x[12,6] 0
x[12,7] 0
x[12,8] 1
x[12,9] 0
x[12,10] 0
x[12,11] 0
x[12,12] 0
x[12,13] 0
x[12,14] 0
x[12,15] 0
x[12,16] 0
x[12,17] 0
x[12,18] 0
x[12,19] 0
x[12,20] 0
x[12,21] 0
x[12,22] 0
x[12,23] 0
x[13,0] 0
x[13,1] 0
x[13,2] 0
x[13,3] 0
x[13,4] 0
x[13,5] 0
x[13,6] 0
x[13,7] 0
x[13,8] 0
x[13,9] 0
x[13,10] 0
x[13,11] 0
x[13,12] 0
x[13,13] 0
x[13,14] 0
x[13,15] 0
x[13,16] 0
x[13,17] 0
x[13,18] 0
x[13,19] 0
x[13,20] 0
x[13,21] 0
x[13,22] 0
x[13,23] 1
x[14,0] 0
x[14,1] 0
x[14,2] 0
x[14,3] 0
x[14,4] 0
x[14,5] 0
x[14,6] 0
x[14,7] 0
x[14,8] 0
x[14,9] 0
x[14,10] 0
x[14,11] 0
x[14,12] 0
x[14,13] 0
x[14,14] 0
x[14,15] 0
x[14,16] 0
x[14,17] 0
x[14,18] 0
x[14,19] 0
x[14,20] 0
x[14,21] 0
x[14,22] 0
x[14,23] 1
x[15,0] 0
x[15,1] 0
x[15,2] 0
x[15,3] 0
x[15,4] 0
x[15,5] 0
x[15,6] 0
x[15,7] 0
x[15,8] 0
x[15,9] 0
x[15,10] 0
x[15,11] 0
x[15,12] 0
x[15,13] 0
x[15,14] 0
x[15,15] 0
x[15,16] 0
x[15,17] 0
x[15,18] 0
x[15,19] 0
x[15,20] 0
x[15,21] 0
x[15,22] 0
x[15,23] 1
x[16,0] 0
x[16,1] 0
x[16,2] 0
x[16,3] 0
x[16,4] 0
x[16,5] 0
x[16,6] 0
x[16,7] 0
x[16,8] 0
x[16,9] 0
x[16,10] 0
x[16,11] 0
x[16,12] 0
x[16,13] 0
x[16,14] 0
x[16,15] 1
x[16,16] 0
x[16,17] 0
x[16,18] 0
x[16,19] 0
x[16,20] 0
x[16,21] 0
x[16,22] 0
x[16,23] 0
x[17,0] 0
x[17,1] 0
x[17,2] 0
x[17,3] 0
x[17,4] 1
x[17,5] 0
x[17,6] 0
x[17,7] 0
x[17,8] 0
x[17,9] 0
x[17,10] 0
x[17,11] 0
x[17,12] 0
x[17,13] 0
x[17,14] 0
x[17,15] 0
x[17,16] 0
x[17,17] 0
x[17,18] 0
x[17,19] 0
x[17,20] 0
x[17,21] 0
x[17,22] 0
x[17,23] 0
x[18,0] 0
x[18,1] 0
x[18,2] 0
x[18,3] 0
x[18,4] 0
x[18,5] 0
x[18,6] 0
x[18,7] 0
x[18,8] 0
x[18,9] 0
x[18,10] 0
x[18,11] 0
x[18,12] 0
x[18,13] 0
x[18,14] 0
x[18,15] 0
x[18,16] 0
x[18,17] 0
x[18,18] 0
x[18,19] 0
x[18,20] 0
x[18,21] 0
x[18,22] 1
x[18,23] 0
x[19,0] 0
x[19,1] 0
x[19,2] 0
x[19,3] 1
x[19,4] 0
x[19,5] 0
x[19,6] 0
x[19,7] 0
x[19,8] 0
x[19,9] 0
x[19,10] 0
x[19,11] 0
x[19,12] 0
x[19,13] 0
x[19,14] 0
x[19,15] 0
x[19,16] 0
x[19,17] 0
x[19,18] 0
x[19,19] 0
x[19,20] 0
x[19,21] 0
x[19,22] 0
x[19,23] 0
x[20,0] 0
x[20,1] 0
x[20,2] 0
x[20,3] 0
x[20,4] 0
x[20,5] 0
x[20,6] 0
x[20,7] 0
x[20,8] 0
x[20,9] 0
x[20,10] 0
x[20,11] 0
x[20,12] 0
x[20,13] 0
x[20,14] 0
x[20,15] 0
x[20,16] 0
x[20,17] 0
x[20,18] 1
x[20,19] 0
x[20,20] 0
x[20,21] 0
x[20,22] 0
x[20,23] 0
x[21,0] 0
x[21,1] 0
x[21,2] 0
x[21,3] 0
x[21,4] 0
x[21,5] 0
x[21,6] 0
x[21,7] 1
x[21,8] 0
x[21,9] 0
x[21,10] 0
x[21,11] 0
x[21,12] 0
x[21,13] 0
x[21,14] 0
x[21,15] 0
x[21,16] 0
x[21,17] 0
x[21,18] 0
x[21,19] 0
x[21,20] 0
x[21,21] 0
x[21,22] 0
x[21,23] 0
x[22,0] 0
x[22,1] 0
x[22,2] 0
x[22,3] 0
x[22,4] 0
x[22,5] 0
x[22,6] 0
x[22,7] 0
x[22,8] 0
x[22,9] 0
x[22,10] 0
x[22,11] 0
x[22,12] 0
x[22,13] 1
x[22,14] 0
x[22,15] 0
x[22,16] 0
x[22,17] 0
x[22,18] 0
x[22,19] 0
x[22,20] 0
x[22,21] 0
x[22,22] 0
x[22,23] 0
x[23,0] 0
x[23,1] 0
x[23,2] 0
x[23,3] 0
x[23,4] 0
x[23,5] 0
x[23,6] 0
x[23,7] 0
x[23,8] 0
x[23,9] 0
x[23,10] 0
x[23,11] 0
x[23,12] 0
x[23,13] 0
x[23,14] 0
x[23,15] 0
x[23,16] 0
x[23,17] 0
x[23,18] 0
x[23,19] 0
x[23,20] 0
x[23,21] 0
x[23,22] 0
x[23,23] 0
w[0,0] 0
w[0,1] 0
w[0,2] 2
w[0,3] 0
w[0,4] 0
w[0,5] 0
w[0,6] 0
w[0,7] 0
w[0,8] 0
w[0,9] 2
w[0,10] 0
w[0,11] 2
w[0,12] 0
w[0,13] 0
w[0,14] 0
w[0,15] 0
w[0,16] 0
w[0,17] 0
w[0,18] 0
w[0,19] 0
w[0,20] 0
w[0,21] 0
w[0,22] 0
w[0,23] 0
w[1,0] 0
w[1,1] 0
w[1,2] 0
w[1,3] 0
w[1,4] 0
w[1,5] 1
w[1,6] 0
w[1,7] 0
w[1,8] 0
w[1,9] 0
w[1,10] 0
w[1,11] 0
w[1,12] 0
w[1,13] 0
w[1,14] 0
w[1,15] 0
w[1,16] 0
w[1,17] 0
w[1,18] 0
w[1,19] 0
w[1,20] 0
w[1,21] 0
w[1,22] 0
w[1,23] 0
w[2,0] 0
w[2,1] 0
w[2,2] 0
w[2,3] 0
w[2,4] 0
w[2,5] 0
w[2,6] 0
w[2,7] 0
w[2,8] 0
w[2,9] 0
w[2,10] 1
w[2,11] 0
w[2,12] 1
w[2,13] 0
w[2,14] 0
w[2,15] 0
w[2,16] 0
w[2,17] 0
w[2,18] 0
w[2,19] 0
w[2,20] 0
w[2,21] 0
w[2,22] 0
w[2,23] 0
w[3,0] 0
w[3,1] 0
w[3,2] 0
w[3,3] 0
w[3,4] 0
w[3,5] 0
w[3,6] 0
w[3,7] 0
w[3,8] 0
w[3,9] 0
w[3,10] 0
w[3,11] 0
w[3,12] 0
w[3,13] 1
w[3,14] 0
w[3,15] 0
w[3,16] 0
w[3,17] 0
w[3,18] 0
w[3,19] 0
w[3,20] 0
w[3,21] 0
w[3,22] 0
w[3,23] 0
w[4,0] 0
w[4,1] 0
w[4,2] 0
w[4,3] 0
w[4,4] 0
w[4,5] 0
w[4,6] 0
w[4,7] 0
w[4,8] 0
w[4,9] 0
w[4,10] 0
w[4,11] 0
w[4,12] 0
w[4,13] 0
w[4,14] 2
w[4,15] 0
w[4,16] 0
w[4,17] 0
w[4,18] 0
w[4,19] 0
w[4,20] 0
w[4,21] 0
w[4,22] 0
w[4,23] 0
w[5,0] 0
w[5,1] 0
w[5,2] 0
w[5,3] 0
w[5,4] 0
w[5,5] 0
w[5,6] 0
w[5,7] 0
w[5,8] 0
w[5,9] 0
w[5,10] 0
w[5,11] 0
w[5,12] 0
w[5,13] 0
w[5,14] 0
w[5,15] 1
w[5,16] 0
w[5,17] 0
w[5,18] 0
w[5,19] 0
w[5,20] 0
w[5,21] 0
w[5,22] 0
w[5,23] 0
w[6,0] 0
w[6,1] 0
w[6,2] 0
w[6,3] 0
w[6,4] 0
w[6,5] 0
w[6,6] 0
w[6,7] 0
w[6,8] 0
w[6,9] 0
w[6,10] 0
w[6,11] 0
w[6,12] 0
w[6,13] 0
w[6,14] 0
w[6,15] 0
w[6,16] 1
w[6,17] 0
w[6,18] 0
w[6,19] 0
w[6,20] 0
w[6,21] 0
w[6,22] 0
w[6,23] 0
w[7,0] 0
w[7,1] 0
w[7,2] 0
w[7,3] 0
w[7,4] 0
w[7,5] 0
w[7,6] 0
w[7,7] 0
w[7,8] 0
w[7,9] 0
w[7,10] 0
w[7,11] 0
w[7,12] 0
w[7,13] 0
w[7,14] 0
w[7,15] 0
w[7,16] 0
w[7,17] 2
w[7,18] 0
w[7,19] 0
w[7,20] 0
w[7,21] 0
w[7,22] 0
w[7,23] 0
w[8,0] 0
w[8,1] 0
w[8,2] 0
w[8,3] 0
w[8,4] 0
w[8,5] 0
w[8,6] 0
w[8,7] 0
w[8,8] 0
w[8,9] 0
w[8,10] 0
w[8,11] 0
w[8,12] 0
w[8,13] 0
w[8,14] 0
w[8,15] 0
w[8,16] 0
w[8,17] 0
w[8,18] 1
w[8,19] 0
w[8,20] 0
w[8,21] 0
w[8,22] 0
w[8,23] 0
w[9,0] 0
w[9,1] 0
w[9,2] 0
w[9,3] 0
w[9,4] 0
w[9,5] 0
w[9,6] 1
w[9,7] 0
w[9,8] 0
w[9,9] 0
w[9,10] 0
w[9,11] 0
w[9,12] 0
w[9,13] 0
w[9,14] 0
w[9,15] 0
w[9,16] 0
w[9,17] 0
w[9,18] 0
w[9,19] 1
w[9,20] 0
w[9,21] 0
w[9,22] 0
w[9,23] 0
w[10,0] 0
w[10,1] 0
w[10,2] 0
w[10,3] 0
w[10,4] 0
w[10,5] 0
w[10,6] 0
w[10,7] 0
w[10,8] 0
w[10,9] 0
w[10,10] 0
w[10,11] 0
w[10,12] 0
w[10,13] 0
w[10,14] 0
w[10,15] 0
w[10,16] 0
w[10,17] 0
w[10,18] 0
w[10,19] 0
w[10,20] 1
w[10,21] 0
w[10,22] 0
w[10,23] 0
w[11,0] 0
w[11,1] 0
w[11,2] 0
w[11,3] 0
w[11,4] 0
w[11,5] 0
w[11,6] 0
w[11,7] 0
w[11,8] 0
w[11,9] 0
w[11,10] 0
w[11,11] 0
w[11,12] 0
w[11,13] 0
w[11,14] 0
w[11,15] 0
w[11,16] 0
w[11,17] 0
w[11,18] 0
w[11,19] 0
w[11,20] 0
w[11,21] 2
w[11,22] 0
w[11,23] 0
w[12,0] 0
w[12,1] 0
w[12,2] 0
w[12,3] 0
w[12,4] 0
w[12,5] 0
w[12,6] 0
w[12,7] 0
w[12,8] 1
w[12,9] 0
w[12,10] 0
w[12,11] 0
w[12,12] 0
w[12,13] 0
w[12,14] 0
w[12,15] 0
w[12,16] 0
w[12,17] 0
w[12,18] 0
w[12,19] 0
w[12,20] 0
w[12,21] 0
w[12,22] 0
w[12,23] 0
w[13,0] 0
w[13,1] 0
w[13,2] 0
w[13,3] 0
w[13,4] 0
w[13,5] 0
w[13,6] 0
w[13,7] 0
w[13,8] 0
w[13,9] 0
w[13,10] 0
w[13,11] 0
w[13,12] 0
w[13,13] 0
w[13,14] 0
w[13,15] 0
w[13,16] 0
w[13,17] 0
w[13,18] 0
w[13,19] 0
w[13,20] 0
w[13,21] 0
w[13,22] 0
w[13,23] 1
w[14,0] 0
w[14,1] 0
w[14,2] 0
w[14,3] 0
w[14,4] 0
w[14,5] 0
w[14,6] 0
w[14,7] 0
w[14,8] 0
w[14,9] 0
w[14,10] 0
w[14,11] 0
w[14,12] 0
w[14,13] 0
w[14,14] 0
w[14,15] 0
w[14,16] 0
w[14,17] 0
w[14,18] 0
w[14,19] 0
w[14,20] 0
w[14,21] 0
w[14,22] 0
w[14,23] 2
w[15,0] 0
w[15,1] 0
w[15,2] 0
w[15,3] 0
w[15,4] 0
w[15,5] 0
w[15,6] 0
w[15,7] 0
w[15,8] 0
w[15,9] 0
w[15,10] 0
w[15,11] 0
w[15,12] 0
w[15,13] 0
w[15,14] 0
w[15,15] 0
w[15,16] 0
w[15,17] 0
w[15,18] 0
w[15,19] 0
w[15,20] 0
w[15,21] 0
w[15,22] 0
w[15,23] 2
w[16,0] 0
w[16,1] 0
w[16,2] 0
w[16,3] 0
w[16,4] 0
w[16,5] 0
w[16,6] 0
w[16,7] 0
w[16,8] 0
w[16,9] 0
w[16,10] 0
w[16,11] 0
w[16,12] 0
w[16,13] 0
w[16,14] 0
w[16,15] 1
w[16,16] 0
w[16,17] 0
w[16,18] 0
w[16,19] 0
w[16,20] 0
w[16,21] 0
w[16,22] 0
w[16,23] 0
w[17,0] 0
w[17,1] 0
w[17,2] 0
w[17,3] 0
w[17,4] 2
w[17,5] 0
w[17,6] 0
w[17,7] 0
w[17,8] 0
w[17,9] 0
w[17,10] 0
w[17,11] 0
w[17,12] 0
w[17,13] 0
w[17,14] 0
w[17,15] 0
w[17,16] 0
w[17,17] 0
w[17,18] 0
w[17,19] 0
w[17,20] 0
w[17,21] 0
w[17,22] 0
w[17,23] 0
w[18,0] 0
w[18,1] 0
w[18,2] 0
w[18,3] 0
w[18,4] 0
w[18,5] 0
w[18,6] 0
w[18,7] 0
w[18,8] 0
w[18,9] 0
w[18,10] 0
w[18,11] 0
w[18,12] 0
w[18,13] 0
w[18,14] 0
w[18,15] 0
w[18,16] 0
w[18,17] 0
w[18,18] 0
w[18,19] 0
w[18,20] 0
w[18,21] 0
w[18,22] 2
w[18,23] 0
w[19,0] 0
w[19,1] 0
w[19,2] 0
w[19,3] 1
w[19,4] 0
w[19,5] 0
w[19,6] 0
w[19,7] 0
w[19,8] 0
w[19,9] 0
w[19,10] 0
w[19,11] 0
w[19,12] 0
w[19,13] 0
w[19,14] 0
w[19,15] 0
w[19,16] 0
w[19,17] 0
w[19,18] 0
w[19,19] 0
w[19,20] 0
w[19,21] 0
w[19,22] 0
w[19,23] 0
w[20,0] 0
w[20,1] 0
w[20,2] 0
w[20,3] 0
w[20,4] 0
w[20,5] 0
w[20,6] 0
w[20,7] 0
w[20,8] 0
w[20,9] 0
w[20,10] 0
w[20,11] 0
w[20,12] 0
w[20,13] 0
w[20,14] 0
w[20,15] 0
w[20,16] 0
w[20,17] 0
w[20,18] 1
w[20,19] 0
w[20,20] 0
w[20,21] 0
w[20,22] 0
w[20,23] 0
w[21,0] 0
w[21,1] 0
w[21,2] 0
w[21,3] 0
w[21,4] 0
w[21,5] 0
w[21,6] 0
w[21,7] 2
w[21,8] 0
w[21,9] 0
w[21,10] 0
w[21,11] 0
w[21,12] 0
w[21,13] 0
w[21,14] 0
w[21,15] 0
w[21,16] 0
w[21,17] 0
w[21,18] 0
w[21,19] 0
w[21,20] 0
w[21,21] 0
w[21,22] 0
w[21,23] 0
w[22,0] 0
w[22,1] 0
w[22,2] 0
w[22,3] 0
w[22,4] 0
w[22,5] 0
w[22,6] 0
w[22,7] 0
w[22,8] 0
w[22,9] 0
w[22,10] 0
w[22,11] 0
w[22,12] 0
w[22,13] 0
w[22,14] 0
w[22,15] 0
w[22,16] 0
w[22,17] 0
w[22,18] 0
w[22,19] 0
w[22,20] 0
w[22,21] 0
w[22,22] 0
w[22,23] 0
w[23,0] 0
w[23,1] 0
w[23,2] 0
w[23,3] 0
w[23,4] 0
w[23,5] 0
w[23,6] 0
w[23,7] 0
w[23,8] 0
w[23,9] 0
w[23,10] 0
w[23,11] 0
w[23,12] 0
w[23,13] 0
w[23,14] 0
w[23,15] 0
w[23,16] 0
w[23,17] 0
w[23,18] 0
w[23,19] 0
w[23,20] 0
w[23,21] 0
w[23,22] 0
w[23,23] 0
v[0,0] 0
v[0,1] 0
v[0,2] 1
v[0,3] 0
v[0,4] 0
v[0,5] 0
v[0,6] 0
v[0,7] 0
v[0,8] 0
v[0,9] 1
v[0,10] 0
v[0,11] 1
v[0,12] 0
v[0,13] 0
v[0,14] 0
v[0,15] 0
v[0,16] 0
v[0,17] 0
v[0,18] 0
v[0,19] 0
v[0,20] 0
v[0,21] 0
v[0,22] 0
v[0,23] 0
v[1,0] 0
v[1,1] 0
v[1,2] 0
v[1,3] 0
v[1,4] 0
v[1,5] 1
v[1,6] 0
v[1,7] 0
v[1,8] 0
v[1,9] 0
v[1,10] 0
v[1,11] 0
v[1,12] 0
v[1,13] 0
v[1,14] 0
v[1,15] 0
v[1,16] 0
v[1,17] 0
v[1,18] 0
v[1,19] 0
v[1,20] 0
v[1,21] 0
v[1,22] 0
v[1,23] 0
v[2,0] 0
v[2,1] 0
v[2,2] 0
v[2,3] 0
v[2,4] 0
v[2,5] 0
v[2,6] 0
v[2,7] 0
v[2,8] 0
v[2,9] 0
v[2,10] 1
v[2,11] 0
v[2,12] 1
v[2,13] 0
v[2,14] 0
v[2,15] 0
v[2,16] 0
v[2,17] 0
v[2,18] 0
v[2,19] 0
v[2,20] 0
v[2,21] 0
v[2,22] 0
v[2,23] 0
v[3,0] 0
v[3,1] 0
v[3,2] 0
v[3,3] 0
v[3,4] 0
v[3,5] 0
v[3,6] 0
v[3,7] 0
v[3,8] 0
v[3,9] 0
v[3,10] 0
v[3,11] 0
v[3,12] 0
v[3,13] 1
v[3,14] 0
v[3,15] 0
v[3,16] 0
v[3,17] 0
v[3,18] 0
v[3,19] 0
v[3,20] 0
v[3,21] 0
v[3,22] 0
v[3,23] 0
v[4,0] 0
v[4,1] 0
v[4,2] 0
v[4,3] 0
v[4,4] 0
v[4,5] 0
v[4,6] 0
v[4,7] 0
v[4,8] 0
v[4,9] 0
v[4,10] 0
v[4,11] 0
v[4,12] 0
v[4,13] 0
v[4,14] 1
v[4,15] 0
v[4,16] 0
v[4,17] 0
v[4,18] 0
v[4,19] 0
v[4,20] 0
v[4,21] 0
v[4,22] 0
v[4,23] 0
v[5,0] 0
v[5,1] 0
v[5,2] 0
v[5,3] 0
v[5,4] 0
v[5,5] 0
v[5,6] 0
v[5,7] 0
v[5,8] 0
v[5,9] 0
v[5,10] 0
v[5,11] 0
v[5,12] 0
v[5,13] 0
v[5,14] 0
v[5,15] 1
v[5,16] 0
v[5,17] 0
v[5,18] 0
v[5,19] 0
v[5,20] 0
v[5,21] 0
v[5,22] 0
v[5,23] 0
v[6,0] 0
v[6,1] 0
v[6,2] 0
v[6,3] 0
v[6,4] 0
v[6,5] 0
v[6,6] 0
v[6,7] 0
v[6,8] 0
v[6,9] 0
v[6,10] 0
v[6,11] 0
v[6,12] 0
v[6,13] 0
v[6,14] 0
v[6,15] 0
v[6,16] 1
v[6,17] 0
v[6,18] 0
v[6,19] 0
v[6,20] 0
v[6,21] 0
v[6,22] 0
v[6,23] 0
v[7,0] 0
v[7,1] 0
v[7,2] 0
v[7,3] 0
v[7,4] 0
v[7,5] 0
v[7,6] 0
v[7,7] 0
v[7,8] 0
v[7,9] 0
v[7,10] 0
v[7,11] 0
v[7,12] 0
v[7,13] 0
v[7,14] 0
v[7,15] 0
v[7,16] 0
v[7,17] 1
v[7,18] 0
v[7,19] 0
v[7,20] 0
v[7,21] 0
v[7,22] 0
v[7,23] 0
v[8,0] 0
v[8,1] 0
v[8,2] 0
v[8,3] 0
v[8,4] 0
v[8,5] 0
v[8,6] 0
v[8,7] 0
v[8,8] 0
v[8,9] 0
v[8,10] 0
v[8,11] 0
v[8,12] 0
v[8,13] 0
v[8,14] 0
v[8,15] 0
v[8,16] 0
v[8,17] 0
v[8,18] 1
v[8,19] 0
v[8,20] 0
v[8,21] 0
v[8,22] 0
v[8,23] 0
v[9,0] 0
v[9,1] 0
v[9,2] 0
v[9,3] 0
v[9,4] 0
v[9,5] 0
v[9,6] 1
v[9,7] 0
v[9,8] 0
v[9,9] 0
v[9,10] 0
v[9,11] 0
v[9,12] 0
v[9,13] 0
v[9,14] 0
v[9,15] 0
v[9,16] 0
v[9,17] 0
v[9,18] 0
v[9,19] 1
v[9,20] 0
v[9,21] 0
v[9,22] 0
v[9,23] 0
v[10,0] 0
v[10,1] 0
v[10,2] 0
v[10,3] 0
v[10,4] 0
v[10,5] 0
v[10,6] 0
v[10,7] 0
v[10,8] 0
v[10,9] 0
v[10,10] 0
v[10,11] 0
v[10,12] 0
v[10,13] 0
v[10,14] 0
v[10,15] 0
v[10,16] 0
v[10,17] 0
v[10,18] 0
v[10,19] 0
v[10,20] 1
v[10,21] 0
v[10,22] 0
v[10,23] 0
v[11,0] 0
v[11,1] 0
v[11,2] 0
v[11,3] 0
v[11,4] 0
v[11,5] 0
v[11,6] 0
v[11,7] 0
v[11,8] 0
v[11,9] 0
v[11,10] 0
v[11,11] 0
v[11,12] 0
v[11,13] 0
v[11,14] 0
v[11,15] 0
v[11,16] 0
v[11,17] 0
v[11,18] 0
v[11,19] 0
v[11,20] 0
v[11,21] 1
v[11,22] 0
v[11,23] 0
v[12,0] 0
v[12,1] 0
v[12,2] 0
v[12,3] 0
v[12,4] 0
v[12,5] 0
v[12,6] 0
v[12,7] 0
v[12,8] 1
v[12,9] 0
v[12,10] 0
v[12,11] 0
v[12,12] 0
v[12,13] 0
v[12,14] 0
v[12,15] 0
v[12,16] 0
v[12,17] 0
v[12,18] 0
v[12,19] 0
v[12,20] 0
v[12,21] 0
v[12,22] 0
v[12,23] 0
v[13,0] 0
v[13,1] 0
v[13,2] 0
v[13,3] 0
v[13,4] 0
v[13,5] 0
v[13,6] 0
v[13,7] 0
v[13,8] 0
v[13,9] 0
v[13,10] 0
v[13,11] 0
v[13,12] 0
v[13,13] 0
v[13,14] 0
v[13,15] 0
v[13,16] 0
v[13,17] 0
v[13,18] 0
v[13,19] 0
v[13,20] 0
v[13,21] 0
v[13,22] 0
v[13,23] 1
v[14,0] 0
v[14,1] 0
v[14,2] 0
v[14,3] 0
v[14,4] 0
v[14,5] 0
v[14,6] 0
v[14,7] 0
v[14,8] 0
v[14,9] 0
v[14,10] 0
v[14,11] 0
v[14,12] 0
v[14,13] 0
v[14,14] 0
v[14,15] 0
v[14,16] 0
v[14,17] 0
v[14,18] 0
v[14,19] 0
v[14,20] 0
v[14,21] 0
v[14,22] 0
v[14,23] 1
v[15,0] 0
v[15,1] 0
v[15,2] 0
v[15,3] 0
v[15,4] 0
v[15,5] 0
v[15,6] 0
v[15,7] 0
v[15,8] 0
v[15,9] 0
v[15,10] 0
v[15,11] 0
v[15,12] 0
v[15,13] 0
v[15,14] 0
v[15,15] 0
v[15,16] 0
v[15,17] 0
v[15,18] 0
v[15,19] 0
v[15,20] 0
v[15,21] 0
v[15,22] 0
v[15,23] 1
v[16,0] 0
v[16,1] 0
v[16,2] 0
v[16,3] 0
v[16,4] 0
v[16,5] 0
v[16,6] 0
v[16,7] 0
v[16,8] 0
v[16,9] 0
v[16,10] 0
v[16,11] 0
v[16,12] 0
v[16,13] 0
v[16,14] 0
v[16,15] 1
v[16,16] 0
v[16,17] 0
v[16,18] 0
v[16,19] 0
v[16,20] 0
v[16,21] 0
v[16,22] 0
v[16,23] 0
v[17,0] 0
v[17,1] 0
v[17,2] 0
v[17,3] 0
v[17,4] 1
v[17,5] 0
v[17,6] 0
v[17,7] 0
v[17,8] 0
v[17,9] 0
v[17,10] 0
v[17,11] 0
v[17,12] 0
v[17,13] 0
v[17,14] 0
v[17,15] 0
v[17,16] 0
v[17,17] 0
v[17,18] 0
v[17,19] 0
v[17,20] 0
v[17,21] 0
v[17,22] 0
v[17,23] 0
v[18,0] 0
v[18,1] 0
v[18,2] 0
v[18,3] 0
v[18,4] 0
v[18,5] 0
v[18,6] 0
v[18,7] 0
v[18,8] 0
v[18,9] 0
v[18,10] 0
v[18,11] 0
v[18,12] 0
v[18,13] 0
v[18,14] 0
v[18,15] 0
v[18,16] 0
v[18,17] 0
v[18,18] 0
v[18,19] 0
v[18,20] 0
v[18,21] 0
v[18,22] 1
v[18,23] 0
v[19,0] 0
v[19,1] 0
v[19,2] 0
v[19,3] 1
v[19,4] 0
v[19,5] 0
v[19,6] 0
v[19,7] 0
v[19,8] 0
v[19,9] 0
v[19,10] 0
v[19,11] 0
v[19,12] 0
v[19,13] 0
v[19,14] 0
v[19,15] 0
v[19,16] 0
v[19,17] 0
v[19,18] 0
v[19,19] 0
v[19,20] 0
v[19,21] 0
v[19,22] 0
v[19,23] 0
v[20,0] 0
v[20,1] 0
v[20,2] 0
v[20,3] 0
v[20,4] 0
v[20,5] 0
v[20,6] 0
v[20,7] 0
v[20,8] 0
v[20,9] 0
v[20,10] 0
v[20,11] 0
v[20,12] 0
v[20,13] 0
v[20,14] 0
v[20,15] 0
v[20,16] 0
v[20,17] 0
v[20,18] 1
v[20,19] 0
v[20,20] 0
v[20,21] 0
v[20,22] 0
v[20,23] 0
v[21,0] 0
v[21,1] 0
v[21,2] 0
v[21,3] 0
v[21,4] 0
v[21,5] 0
v[21,6] 0
v[21,7] 1
v[21,8] 0
v[21,9] 0
v[21,10] 0
v[21,11] 0
v[21,12] 0
v[21,13] 0
v[21,14] 0
v[21,15] 0
v[21,16] 0
v[21,17] 0
v[21,18] 0
v[21,19] 0
v[21,20] 0
v[21,21] 0
v[21,22] 0
v[21,23] 0
v[22,0] 0
v[22,1] 0
v[22,2] 0
v[22,3] 0
v[22,4] 0
v[22,5] 0
v[22,6] 0
v[22,7] 0
v[22,8] 0
v[22,9] 0
v[22,10] 0
v[22,11] 0
v[22,12] 0
v[22,13] 0
v[22,14] 0
v[22,15] 0
v[22,16] 0
v[22,17] 0
v[22,18] 0
v[22,19] 0
v[22,20] 0
v[22,21] 0
v[22,22] 0
v[22,23] 0
v[23,0] 0
v[23,1] 0
v[23,2] 0
v[23,3] 0
v[23,4] 0
v[23,5] 0
v[23,6] 0
v[23,7] 0
v[23,8] 0
v[23,9] 0
v[23,10] 0
v[23,11] 0
v[23,12] 0
v[23,13] 0
v[23,14] 0
v[23,15] 0
v[23,16] 0
v[23,17] 0
v[23,18] 0
v[23,19] 0
v[23,20] 0
v[23,21] 0
v[23,22] 0
v[23,23] 0
y[2,1] 1
y[2,2] 0
y[3,1] 1
y[3,2] 0
y[4,1] 0
y[4,2] 1
y[5,1] 1
y[5,2] 0
y[6,1] 1
y[6,2] 0
y[7,1] 0
y[7,2] 1
y[8,1] 1
y[8,2] 0
y[9,1] 1
y[9,2] 0
y[10,1] 1
y[10,2] 0
y[11,1] 0
y[11,2] 1
service_time[0] 0
service_time[1] 0
service_time[2] 220
service_time[3] 340
service_time[4] 245
service_time[5] 490
service_time[6] 300
service_time[7] 220
service_time[8] 270
service_time[9] 240
service_time[10] 340
service_time[11] 115
service_time[12] 0
service_time[13] 0
service_time[14] 0
service_time[15] 0
service_time[16] 0
service_time[17] 0
service_time[18] 0
service_time[19] 0
service_time[20] 0
service_time[21] 0
service_time[22] 0
service_time[23] 0
start_service[0] 0
start_service[1] 2.9672848960604142e+01
start_service[2] 5.3571214263392847e+01
start_service[3] 3.4682011358159184e+02
start_service[4] 4.6969927798781578e+02
start_service[5] 8.1287463529836941e+01
start_service[6] 3.0918553138917378e+02
start_service[7] 1.9857320345284938e+02
start_service[8] 3.5953929285076919e+02
start_service[9] 2.7570998615208737e+01
start_service[10] 2.8538201410923642e+02
start_service[11] 1.4836424480295364e+01
start_service[12] 2.9719281395508006e+02
start_service[13] 7.4003485223165274e+02
start_service[14] 7.1469927798781578e+02
start_service[15] 7.2450093720562154e+02
start_service[16] 7.0910906567191569e+02
start_service[17] 4.1857320345284938e+02
start_service[18] 6.5521076486859965e+02
start_service[19] 2.8401788779789172e+02
start_service[20] 6.2538201410923648e+02
start_service[21] 1.4273132244042176e+02
start_service[22] 7.0395415268841691e+02
start_service[23] 7.7611555177483410e+02
